1600 3200
1 2 5
1 41 5
2 3 1
2 42 1
3 4 4
3 43 4
4 5 5
4 44 5
5 6 4
5 45 3
6 7 2
6 46 5
7 8 1
7 47 4
8 9 3
8 48 2
9 10 5
9 49 1
10 11 2
10 50 2
11 12 5
11 51 2
12 13 4
12 52 1
13 14 2
13 53 3
14 15 1
14 54 4
15 16 2
15 55 3
16 17 4
16 56 5
17 18 4
17 57 4
18 19 4
18 58 2
19 20 5
19 59 5
20 21 4
20 60 3
21 22 2
21 61 2
22 23 2
22 62 1
23 24 1
23 63 1
24 25 1
24 64 5
25 26 2
25 65 1
26 27 2
26 66 1
27 28 4
27 67 5
28 29 5
28 68 3
29 30 4
29 69 5
30 31 4
30 70 2
31 32 1
31 71 4
32 33 1
32 72 2
33 34 2
33 73 1
34 35 2
34 74 4
35 36 1
35 75 4
36 37 2
36 76 5
37 38 3
37 77 5
38 39 3
38 78 1
39 40 3
39 79 4
40 80 2
41 42 1
41 81 4
42 43 4
42 82 1
43 44 5
43 83 4
44 45 2
44 84 1
45 46 1
45 85 1
46 47 2
46 86 3
47 48 4
47 87 5
48 49 4
48 88 3
49 50 1
49 89 4
50 51 1
50 90 3
51 52 3
51 91 1
52 53 5
52 92 4
53 54 1
53 93 1
54 55 4
54 94 5
55 56 2
55 95 5
56 57 4
56 96 1
57 58 1
57 97 1
58 59 2
58 98 5
59 60 4
59 99 1
60 61 5
60 100 3
61 62 5
61 101 1
62 63 1
62 102 3
63 64 4
63 103 4
64 65 2
64 104 2
65 66 2
65 105 1
66 67 2
66 106 1
67 68 5
67 107 1
68 69 3
68 108 2
69 70 5
69 109 3
70 71 3
70 110 1
71 72 1
71 111 2
72 73 2
72 112 3
73 74 3
73 113 3
74 75 2
74 114 3
75 76 1
75 115 2
76 77 2
76 116 5
77 78 5
77 117 5
78 79 2
78 118 2
79 80 5
79 119 2
80 120 4
81 82 4
81 121 4
82 83 4
82 122 3
83 84 2
83 123 3
84 85 3
84 124 1
85 86 4
85 125 3
86 87 1
86 126 3
87 88 4
87 127 2
88 89 4
88 128 2
89 90 3
89 129 5
90 91 2
90 130 1
91 92 4
91 131 1
92 93 3
92 132 3
93 94 5
93 133 5
94 95 4
94 134 1
95 96 5
95 135 1
96 97 3
96 136 3
97 98 4
97 137 5
98 99 5
98 138 2
99 100 2
99 139 4
100 101 2
100 140 1
101 102 5
101 141 2
102 103 1
102 142 4
103 104 3
103 143 1
104 105 5
104 144 3
105 106 3
105 145 5
106 107 1
106 146 4
107 108 2
107 147 5
108 109 2
108 148 4
109 110 4
109 149 1
110 111 3
110 150 2
111 112 4
111 151 2
112 113 5
112 152 2
113 114 3
113 153 5
114 115 1
114 154 5
115 116 4
115 155 3
116 117 1
116 156 4
117 118 3
117 157 3
118 119 3
118 158 5
119 120 3
119 159 5
120 160 3
121 122 4
121 161 3
122 123 1
122 162 1
123 124 5
123 163 4
124 125 3
124 164 1
125 126 5
125 165 2
126 127 4
126 166 4
127 128 4
127 167 2
128 129 3
128 168 4
129 130 2
129 169 3
130 131 2
130 170 4
131 132 5
131 171 2
132 133 2
132 172 4
133 134 4
133 173 4
134 135 4
134 174 5
135 136 2
135 175 3
136 137 3
136 176 4
137 138 3
137 177 1
138 139 3
138 178 4
139 140 2
139 179 2
140 141 3
140 180 5
141 142 5
141 181 4
142 143 3
142 182 3
143 144 3
143 183 5
144 145 3
144 184 1
145 146 2
145 185 3
146 147 1
146 186 3
147 148 2
147 187 3
148 149 2
148 188 4
149 150 4
149 189 5
150 151 3
150 190 3
151 152 3
151 191 1
152 153 2
152 192 5
153 154 1
153 193 1
154 155 1
154 194 3
155 156 4
155 195 4
156 157 4
156 196 3
157 158 5
157 197 5
158 159 2
158 198 5
159 160 4
159 199 4
160 200 2
161 162 3
161 201 4
162 163 2
162 202 5
163 164 4
163 203 3
164 165 5
164 204 3
165 166 5
165 205 3
166 167 2
166 206 1
167 168 3
167 207 5
168 169 5
168 208 5
169 170 3
169 209 5
170 171 2
170 210 1
171 172 2
171 211 2
172 173 1
172 212 1
173 174 4
173 213 5
174 175 2
174 214 2
175 176 5
175 215 3
176 177 2
176 216 5
177 178 1
177 217 2
178 179 1
178 218 2
179 180 5
179 219 1
180 181 4
180 220 4
181 182 5
181 221 3
182 183 4
182 222 4
183 184 2
183 223 5
184 185 4
184 224 1
185 186 1
185 225 4
186 187 1
186 226 3
187 188 1
187 227 4
188 189 2
188 228 3
189 190 4
189 229 2
190 191 2
190 230 4
191 192 2
191 231 4
192 193 5
192 232 5
193 194 3
193 233 3
194 195 1
194 234 3
195 196 3
195 235 5
196 197 3
196 236 1
197 198 2
197 237 1
198 199 2
198 238 5
199 200 4
199 239 4
200 240 1
201 202 4
201 241 2
202 203 4
202 242 4
203 204 4
203 243 3
204 205 2
204 244 5
205 206 4
205 245 1
206 207 3
206 246 2
207 208 2
207 247 5
208 209 1
208 248 1
209 210 4
209 249 5
210 211 4
210 250 3
211 212 1
211 251 2
212 213 3
212 252 3
213 214 4
213 253 4
214 215 1
214 254 4
215 216 2
215 255 4
216 217 4
216 256 2
217 218 4
217 257 1
218 219 4
218 258 5
219 220 5
219 259 4
220 221 5
220 260 3
221 222 1
221 261 3
222 223 3
222 262 5
223 224 5
223 263 3
224 225 3
224 264 4
225 226 1
225 265 1
226 227 3
226 266 1
227 228 1
227 267 3
228 229 4
228 268 1
229 230 2
229 269 5
230 231 4
230 270 4
231 232 3
231 271 2
232 233 2
232 272 4
233 234 2
233 273 3
234 235 5
234 274 4
235 236 2
235 275 3
236 237 1
236 276 2
237 238 2
237 277 5
238 239 1
238 278 2
239 240 2
239 279 2
240 280 3
241 242 4
241 281 3
242 243 1
242 282 1
243 244 1
243 283 2
244 245 4
244 284 1
245 246 2
245 285 1
246 247 2
246 286 1
247 248 4
247 287 5
248 249 5
248 288 5
249 250 3
249 289 5
250 251 2
250 290 5
251 252 1
251 291 1
252 253 3
252 292 1
253 254 1
253 293 2
254 255 1
254 294 2
255 256 1
255 295 4
256 257 5
256 296 1
257 258 1
257 297 1
258 259 2
258 298 2
259 260 2
259 299 2
260 261 3
260 300 3
261 262 3
261 301 5
262 263 4
262 302 5
263 264 3
263 303 4
264 265 3
264 304 1
265 266 1
265 305 2
266 267 4
266 306 5
267 268 4
267 307 1
268 269 4
268 308 4
269 270 5
269 309 4
270 271 4
270 310 5
271 272 4
271 311 5
272 273 1
272 312 3
273 274 3
273 313 5
274 275 4
274 314 1
275 276 3
275 315 1
276 277 4
276 316 4
277 278 4
277 317 3
278 279 4
278 318 2
279 280 1
279 319 1
280 320 2
281 282 3
281 321 2
282 283 5
282 322 3
283 284 2
283 323 4
284 285 3
284 324 4
285 286 2
285 325 1
286 287 3
286 326 1
287 288 5
287 327 1
288 289 4
288 328 5
289 290 2
289 329 2
290 291 3
290 330 1
291 292 3
291 331 1
292 293 5
292 332 1
293 294 3
293 333 4
294 295 3
294 334 3
295 296 1
295 335 5
296 297 3
296 336 2
297 298 4
297 337 5
298 299 1
298 338 2
299 300 5
299 339 1
300 301 5
300 340 4
301 302 2
301 341 3
302 303 1
302 342 2
303 304 2
303 343 5
304 305 2
304 344 4
305 306 1
305 345 1
306 307 3
306 346 2
307 308 4
307 347 4
308 309 5
308 348 4
309 310 2
309 349 4
310 311 5
310 350 1
311 312 3
311 351 4
312 313 2
312 352 2
313 314 2
313 353 5
314 315 4
314 354 2
315 316 1
315 355 4
316 317 3
316 356 4
317 318 3
317 357 1
318 319 5
318 358 5
319 320 2
319 359 1
320 360 3
321 322 5
321 361 2
322 323 3
322 362 4
323 324 4
323 363 4
324 325 1
324 364 1
325 326 3
325 365 1
326 327 5
326 366 1
327 328 3
327 367 2
328 329 5
328 368 2
329 330 3
329 369 1
330 331 5
330 370 5
331 332 1
331 371 1
332 333 1
332 372 4
333 334 3
333 373 4
334 335 5
334 374 4
335 336 5
335 375 5
336 337 5
336 376 2
337 338 1
337 377 4
338 339 2
338 378 2
339 340 2
339 379 1
340 341 5
340 380 2
341 342 2
341 381 2
342 343 3
342 382 5
343 344 3
343 383 1
344 345 5
344 384 5
345 346 5
345 385 4
346 347 2
346 386 2
347 348 5
347 387 5
348 349 2
348 388 2
349 350 1
349 389 3
350 351 1
350 390 4
351 352 2
351 391 4
352 353 3
352 392 2
353 354 2
353 393 5
354 355 1
354 394 1
355 356 3
355 395 2
356 357 5
356 396 3
357 358 2
357 397 2
358 359 2
358 398 1
359 360 1
359 399 4
360 400 5
361 362 3
361 401 4
362 363 1
362 402 3
363 364 1
363 403 4
364 365 2
364 404 3
365 366 3
365 405 5
366 367 3
366 406 1
367 368 5
367 407 3
368 369 2
368 408 4
369 370 5
369 409 3
370 371 5
370 410 2
371 372 5
371 411 5
372 373 2
372 412 3
373 374 2
373 413 4
374 375 5
374 414 1
375 376 3
375 415 4
376 377 1
376 416 3
377 378 3
377 417 1
378 379 2
378 418 4
379 380 2
379 419 2
380 381 2
380 420 1
381 382 1
381 421 4
382 383 5
382 422 5
383 384 1
383 423 3
384 385 3
384 424 4
385 386 5
385 425 1
386 387 2
386 426 3
387 388 2
387 427 4
388 389 1
388 428 2
389 390 2
389 429 3
390 391 1
390 430 1
391 392 2
391 431 4
392 393 1
392 432 1
393 394 2
393 433 5
394 395 3
394 434 5
395 396 1
395 435 3
396 397 2
396 436 3
397 398 4
397 437 4
398 399 1
398 438 2
399 400 1
399 439 3
400 440 1
401 402 4
401 441 3
402 403 5
402 442 2
403 404 5
403 443 4
404 405 1
404 444 4
405 406 2
405 445 1
406 407 3
406 446 3
407 408 5
407 447 2
408 409 5
408 448 3
409 410 4
409 449 4
410 411 2
410 450 4
411 412 5
411 451 5
412 413 4
412 452 3
413 414 2
413 453 3
414 415 5
414 454 4
415 416 3
415 455 3
416 417 5
416 456 2
417 418 3
417 457 5
418 419 4
418 458 4
419 420 4
419 459 4
420 421 3
420 460 2
421 422 2
421 461 3
422 423 4
422 462 2
423 424 3
423 463 5
424 425 1
424 464 3
425 426 1
425 465 4
426 427 2
426 466 5
427 428 2
427 467 2
428 429 3
428 468 4
429 430 2
429 469 2
430 431 3
430 470 3
431 432 3
431 471 2
432 433 3
432 472 5
433 434 5
433 473 1
434 435 2
434 474 4
435 436 4
435 475 2
436 437 2
436 476 1
437 438 5
437 477 4
438 439 1
438 478 5
439 440 1
439 479 2
440 480 1
441 442 5
441 481 4
442 443 3
442 482 1
443 444 5
443 483 4
444 445 1
444 484 2
445 446 2
445 485 2
446 447 4
446 486 5
447 448 3
447 487 1
448 449 2
448 488 3
449 450 4
449 489 1
450 451 4
450 490 2
451 452 1
451 491 5
452 453 4
452 492 3
453 454 5
453 493 2
454 455 5
454 494 2
455 456 2
455 495 1
456 457 2
456 496 3
457 458 1
457 497 2
458 459 2
458 498 5
459 460 3
459 499 3
460 461 5
460 500 4
461 462 3
461 501 3
462 463 3
462 502 5
463 464 3
463 503 3
464 465 5
464 504 5
465 466 4
465 505 3
466 467 5
466 506 2
467 468 5
467 507 4
468 469 4
468 508 4
469 470 4
469 509 4
470 471 5
470 510 4
471 472 4
471 511 1
472 473 5
472 512 5
473 474 2
473 513 4
474 475 2
474 514 1
475 476 4
475 515 3
476 477 2
476 516 5
477 478 5
477 517 3
478 479 2
478 518 2
479 480 3
479 519 3
480 520 3
481 482 1
481 521 3
482 483 3
482 522 4
483 484 3
483 523 4
484 485 1
484 524 3
485 486 5
485 525 3
486 487 2
486 526 2
487 488 3
487 527 5
488 489 3
488 528 4
489 490 3
489 529 4
490 491 2
490 530 3
491 492 3
491 531 5
492 493 3
492 532 1
493 494 4
493 533 5
494 495 5
494 534 5
495 496 1
495 535 1
496 497 5
496 536 1
497 498 4
497 537 4
498 499 2
498 538 5
499 500 4
499 539 3
500 501 5
500 540 4
501 502 4
501 541 2
502 503 3
502 542 3
503 504 2
503 543 4
504 505 3
504 544 5
505 506 5
505 545 1
506 507 5
506 546 2
507 508 3
507 547 2
508 509 4
508 548 3
509 510 5
509 549 1
510 511 3
510 550 4
511 512 3
511 551 3
512 513 1
512 552 5
513 514 2
513 553 4
514 515 2
514 554 1
515 516 3
515 555 5
516 517 2
516 556 4
517 518 1
517 557 5
518 519 4
518 558 4
519 520 5
519 559 2
520 560 2
521 522 2
521 561 1
522 523 3
522 562 4
523 524 4
523 563 3
524 525 1
524 564 5
525 526 4
525 565 1
526 527 5
526 566 2
527 528 3
527 567 5
528 529 1
528 568 4
529 530 4
529 569 1
530 531 2
530 570 2
531 532 5
531 571 2
532 533 3
532 572 4
533 534 4
533 573 3
534 535 4
534 574 2
535 536 3
535 575 1
536 537 2
536 576 2
537 538 3
537 577 2
538 539 2
538 578 1
539 540 5
539 579 3
540 541 4
540 580 4
541 542 2
541 581 3
542 543 2
542 582 2
543 544 4
543 583 3
544 545 1
544 584 3
545 546 5
545 585 3
546 547 1
546 586 5
547 548 5
547 587 4
548 549 3
548 588 5
549 550 1
549 589 5
550 551 3
550 590 4
551 552 2
551 591 5
552 553 1
552 592 1
553 554 3
553 593 5
554 555 4
554 594 3
555 556 2
555 595 2
556 557 3
556 596 1
557 558 5
557 597 4
558 559 4
558 598 5
559 560 3
559 599 3
560 600 3
561 562 2
561 601 4
562 563 5
562 602 4
563 564 1
563 603 1
564 565 2
564 604 5
565 566 1
565 605 2
566 567 5
566 606 5
567 568 1
567 607 2
568 569 4
568 608 5
569 570 2
569 609 4
570 571 2
570 610 5
571 572 2
571 611 4
572 573 5
572 612 2
573 574 2
573 613 3
574 575 5
574 614 3
575 576 4
575 615 4
576 577 3
576 616 5
577 578 3
577 617 4
578 579 2
578 618 3
579 580 1
579 619 2
580 581 4
580 620 2
581 582 1
581 621 2
582 583 4
582 622 3
583 584 5
583 623 1
584 585 1
584 624 3
585 586 1
585 625 3
586 587 2
586 626 4
587 588 4
587 627 5
588 589 3
588 628 1
589 590 2
589 629 3
590 591 2
590 630 1
591 592 4
591 631 1
592 593 3
592 632 1
593 594 2
593 633 4
594 595 3
594 634 5
595 596 3
595 635 1
596 597 4
596 636 5
597 598 5
597 637 2
598 599 2
598 638 5
599 600 1
599 639 2
600 640 2
601 602 2
601 641 4
602 603 5
602 642 1
603 604 5
603 643 1
604 605 1
604 644 5
605 606 2
605 645 5
606 607 2
606 646 4
607 608 2
607 647 5
608 609 1
608 648 5
609 610 3
609 649 3
610 611 4
610 650 3
611 612 3
611 651 5
612 613 2
612 652 3
613 614 3
613 653 4
614 615 2
614 654 4
615 616 3
615 655 3
616 617 1
616 656 5
617 618 5
617 657 3
618 619 4
618 658 2
619 620 1
619 659 3
620 621 4
620 660 2
621 622 2
621 661 5
622 623 1
622 662 3
623 624 2
623 663 3
624 625 4
624 664 2
625 626 1
625 665 5
626 627 1
626 666 4
627 628 4
627 667 5
628 629 1
628 668 5
629 630 5
629 669 2
630 631 4
630 670 4
631 632 4
631 671 1
632 633 2
632 672 2
633 634 1
633 673 1
634 635 3
634 674 3
635 636 4
635 675 3
636 637 1
636 676 4
637 638 5
637 677 2
638 639 3
638 678 5
639 640 4
639 679 2
640 680 5
641 642 1
641 681 4
642 643 5
642 682 2
643 644 5
643 683 2
644 645 3
644 684 5
645 646 3
645 685 4
646 647 5
646 686 4
647 648 1
647 687 1
648 649 4
648 688 1
649 650 4
649 689 5
650 651 3
650 690 3
651 652 3
651 691 4
652 653 4
652 692 1
653 654 4
653 693 2
654 655 2
654 694 4
655 656 5
655 695 4
656 657 2
656 696 2
657 658 1
657 697 1
658 659 5
658 698 1
659 660 4
659 699 4
660 661 4
660 700 4
661 662 5
661 701 5
662 663 4
662 702 5
663 664 2
663 703 2
664 665 3
664 704 4
665 666 3
665 705 1
666 667 1
666 706 2
667 668 4
667 707 2
668 669 4
668 708 3
669 670 5
669 709 3
670 671 3
670 710 3
671 672 2
671 711 4
672 673 3
672 712 4
673 674 1
673 713 4
674 675 1
674 714 3
675 676 2
675 715 1
676 677 2
676 716 5
677 678 1
677 717 1
678 679 3
678 718 1
679 680 4
679 719 1
680 720 3
681 682 4
681 721 5
682 683 4
682 722 2
683 684 5
683 723 2
684 685 4
684 724 2
685 686 4
685 725 2
686 687 5
686 726 5
687 688 4
687 727 3
688 689 1
688 728 2
689 690 2
689 729 1
690 691 2
690 730 3
691 692 3
691 731 2
692 693 5
692 732 4
693 694 2
693 733 1
694 695 3
694 734 4
695 696 4
695 735 3
696 697 2
696 736 1
697 698 3
697 737 3
698 699 5
698 738 1
699 700 2
699 739 3
700 701 2
700 740 3
701 702 5
701 741 1
702 703 1
702 742 4
703 704 4
703 743 5
704 705 4
704 744 1
705 706 1
705 745 5
706 707 3
706 746 2
707 708 2
707 747 4
708 709 2
708 748 3
709 710 1
709 749 5
710 711 1
710 750 5
711 712 2
711 751 2
712 713 1
712 752 1
713 714 2
713 753 2
714 715 3
714 754 2
715 716 2
715 755 4
716 717 5
716 756 2
717 718 2
717 757 1
718 719 3
718 758 3
719 720 3
719 759 4
720 760 4
721 722 3
721 761 1
722 723 3
722 762 5
723 724 5
723 763 3
724 725 3
724 764 5
725 726 3
725 765 2
726 727 5
726 766 1
727 728 1
727 767 1
728 729 2
728 768 1
729 730 2
729 769 1
730 731 1
730 770 5
731 732 3
731 771 2
732 733 4
732 772 3
733 734 1
733 773 5
734 735 4
734 774 1
735 736 1
735 775 4
736 737 4
736 776 2
737 738 2
737 777 2
738 739 4
738 778 2
739 740 2
739 779 5
740 741 2
740 780 2
741 742 2
741 781 5
742 743 5
742 782 3
743 744 1
743 783 5
744 745 3
744 784 5
745 746 4
745 785 3
746 747 3
746 786 1
747 748 2
747 787 5
748 749 5
748 788 2
749 750 5
749 789 2
750 751 1
750 790 4
751 752 1
751 791 3
752 753 5
752 792 3
753 754 1
753 793 4
754 755 4
754 794 4
755 756 3
755 795 4
756 757 2
756 796 2
757 758 1
757 797 3
758 759 2
758 798 5
759 760 4
759 799 3
760 800 2
761 762 2
761 801 1
762 763 2
762 802 1
763 764 1
763 803 2
764 765 3
764 804 5
765 766 3
765 805 3
766 767 2
766 806 2
767 768 4
767 807 1
768 769 3
768 808 5
769 770 1
769 809 5
770 771 1
770 810 1
771 772 1
771 811 5
772 773 1
772 812 4
773 774 4
773 813 5
774 775 5
774 814 5
775 776 2
775 815 5
776 777 2
776 816 2
777 778 1
777 817 5
778 779 3
778 818 1
779 780 4
779 819 1
780 781 3
780 820 3
781 782 2
781 821 2
782 783 3
782 822 1
783 784 4
783 823 2
784 785 1
784 824 3
785 786 5
785 825 1
786 787 2
786 826 5
787 788 1
787 827 1
788 789 4
788 828 1
789 790 3
789 829 4
790 791 2
790 830 1
791 792 1
791 831 4
792 793 4
792 832 3
793 794 2
793 833 3
794 795 3
794 834 4
795 796 3
795 835 5
796 797 5
796 836 3
797 798 3
797 837 3
798 799 5
798 838 3
799 800 5
799 839 3
800 840 1
801 802 3
801 841 3
802 803 4
802 842 2
803 804 4
803 843 3
804 805 5
804 844 4
805 806 2
805 845 3
806 807 5
806 846 4
807 808 4
807 847 2
808 809 5
808 848 3
809 810 3
809 849 2
810 811 5
810 850 5
811 812 4
811 851 1
812 813 4
812 852 1
813 814 4
813 853 4
814 815 4
814 854 2
815 816 2
815 855 2
816 817 4
816 856 1
817 818 5
817 857 2
818 819 3
818 858 5
819 820 5
819 859 3
820 821 5
820 860 1
821 822 1
821 861 3
822 823 2
822 862 2
823 824 5
823 863 2
824 825 3
824 864 1
825 826 5
825 865 5
826 827 3
826 866 2
827 828 2
827 867 2
828 829 4
828 868 2
829 830 2
829 869 1
830 831 5
830 870 5
831 832 4
831 871 5
832 833 3
832 872 3
833 834 3
833 873 1
834 835 5
834 874 2
835 836 4
835 875 3
836 837 5
836 876 1
837 838 3
837 877 4
838 839 2
838 878 2
839 840 1
839 879 3
840 880 4
841 842 3
841 881 1
842 843 1
842 882 5
843 844 5
843 883 1
844 845 5
844 884 5
845 846 4
845 885 3
846 847 1
846 886 5
847 848 5
847 887 4
848 849 5
848 888 5
849 850 1
849 889 5
850 851 1
850 890 2
851 852 3
851 891 4
852 853 4
852 892 5
853 854 2
853 893 3
854 855 2
854 894 5
855 856 3
855 895 3
856 857 4
856 896 1
857 858 4
857 897 2
858 859 2
858 898 2
859 860 1
859 899 5
860 861 5
860 900 4
861 862 2
861 901 2
862 863 2
862 902 1
863 864 2
863 903 3
864 865 3
864 904 3
865 866 3
865 905 2
866 867 4
866 906 5
867 868 5
867 907 3
868 869 5
868 908 1
869 870 3
869 909 3
870 871 1
870 910 5
871 872 1
871 911 1
872 873 4
872 912 3
873 874 2
873 913 4
874 875 1
874 914 4
875 876 3
875 915 1
876 877 3
876 916 4
877 878 1
877 917 5
878 879 2
878 918 5
879 880 4
879 919 1
880 920 4
881 882 2
881 921 3
882 883 5
882 922 3
883 884 4
883 923 3
884 885 2
884 924 1
885 886 5
885 925 3
886 887 2
886 926 5
887 888 2
887 927 5
888 889 1
888 928 2
889 890 3
889 929 3
890 891 3
890 930 4
891 892 5
891 931 1
892 893 3
892 932 2
893 894 4
893 933 2
894 895 4
894 934 5
895 896 1
895 935 5
896 897 1
896 936 1
897 898 3
897 937 1
898 899 3
898 938 5
899 900 2
899 939 1
900 901 2
900 940 3
901 902 5
901 941 2
902 903 5
902 942 4
903 904 4
903 943 5
904 905 5
904 944 1
905 906 3
905 945 2
906 907 1
906 946 3
907 908 5
907 947 3
908 909 5
908 948 5
909 910 3
909 949 3
910 911 5
910 950 1
911 912 2
911 951 5
912 913 3
912 952 5
913 914 5
913 953 1
914 915 2
914 954 1
915 916 4
915 955 5
916 917 2
916 956 1
917 918 3
917 957 4
918 919 2
918 958 5
919 920 5
919 959 3
920 960 5
921 922 5
921 961 1
922 923 5
922 962 5
923 924 1
923 963 4
924 925 5
924 964 1
925 926 1
925 965 2
926 927 5
926 966 2
927 928 2
927 967 2
928 929 3
928 968 5
929 930 4
929 969 5
930 931 3
930 970 2
931 932 2
931 971 3
932 933 5
932 972 2
933 934 5
933 973 3
934 935 3
934 974 1
935 936 2
935 975 3
936 937 5
936 976 2
937 938 3
937 977 5
938 939 3
938 978 3
939 940 2
939 979 2
940 941 1
940 980 5
941 942 4
941 981 4
942 943 3
942 982 2
943 944 3
943 983 5
944 945 5
944 984 5
945 946 1
945 985 1
946 947 2
946 986 3
947 948 2
947 987 5
948 949 1
948 988 2
949 950 5
949 989 2
950 951 1
950 990 1
951 952 5
951 991 2
952 953 3
952 992 1
953 954 3
953 993 5
954 955 2
954 994 1
955 956 4
955 995 2
956 957 3
956 996 3
957 958 2
957 997 1
958 959 4
958 998 2
959 960 3
959 999 5
960 1000 2
961 962 3
961 1001 3
962 963 3
962 1002 2
963 964 5
963 1003 2
964 965 4
964 1004 1
965 966 4
965 1005 3
966 967 4
966 1006 5
967 968 2
967 1007 1
968 969 1
968 1008 2
969 970 4
969 1009 3
970 971 2
970 1010 4
971 972 4
971 1011 1
972 973 2
972 1012 2
973 974 3
973 1013 1
974 975 2
974 1014 3
975 976 3
975 1015 5
976 977 2
976 1016 5
977 978 1
977 1017 3
978 979 1
978 1018 5
979 980 5
979 1019 4
980 981 3
980 1020 1
981 982 3
981 1021 4
982 983 2
982 1022 5
983 984 2
983 1023 1
984 985 5
984 1024 1
985 986 1
985 1025 4
986 987 3
986 1026 4
987 988 3
987 1027 2
988 989 1
988 1028 5
989 990 2
989 1029 1
990 991 3
990 1030 2
991 992 2
991 1031 4
992 993 1
992 1032 1
993 994 2
993 1033 3
994 995 1
994 1034 1
995 996 4
995 1035 4
996 997 4
996 1036 2
997 998 5
997 1037 5
998 999 3
998 1038 3
999 1000 2
999 1039 4
1000 1040 5
1001 1002 5
1001 1041 1
1002 1003 5
1002 1042 5
1003 1004 1
1003 1043 3
1004 1005 2
1004 1044 2
1005 1006 5
1005 1045 1
1006 1007 4
1006 1046 4
1007 1008 1
1007 1047 3
1008 1009 4
1008 1048 4
1009 1010 5
1009 1049 3
1010 1011 4
1010 1050 1
1011 1012 3
1011 1051 1
1012 1013 4
1012 1052 5
1013 1014 2
1013 1053 1
1014 1015 4
1014 1054 4
1015 1016 4
1015 1055 1
1016 1017 1
1016 1056 2
1017 1018 1
1017 1057 1
1018 1019 2
1018 1058 2
1019 1020 3
1019 1059 2
1020 1021 1
1020 1060 4
1021 1022 5
1021 1061 2
1022 1023 5
1022 1062 5
1023 1024 5
1023 1063 3
1024 1025 1
1024 1064 1
1025 1026 2
1025 1065 4
1026 1027 5
1026 1066 3
1027 1028 1
1027 1067 2
1028 1029 4
1028 1068 4
1029 1030 3
1029 1069 2
1030 1031 5
1030 1070 4
1031 1032 2
1031 1071 5
1032 1033 3
1032 1072 3
1033 1034 5
1033 1073 5
1034 1035 2
1034 1074 2
1035 1036 1
1035 1075 3
1036 1037 1
1036 1076 5
1037 1038 4
1037 1077 3
1038 1039 3
1038 1078 5
1039 1040 1
1039 1079 5
1040 1080 1
1041 1042 3
1041 1081 2
1042 1043 1
1042 1082 1
1043 1044 1
1043 1083 1
1044 1045 2
1044 1084 2
1045 1046 3
1045 1085 2
1046 1047 5
1046 1086 1
1047 1048 5
1047 1087 4
1048 1049 1
1048 1088 4
1049 1050 1
1049 1089 3
1050 1051 4
1050 1090 1
1051 1052 3
1051 1091 4
1052 1053 3
1052 1092 3
1053 1054 3
1053 1093 5
1054 1055 3
1054 1094 3
1055 1056 5
1055 1095 4
1056 1057 1
1056 1096 4
1057 1058 4
1057 1097 2
1058 1059 3
1058 1098 3
1059 1060 1
1059 1099 3
1060 1061 4
1060 1100 1
1061 1062 2
1061 1101 5
1062 1063 1
1062 1102 4
1063 1064 5
1063 1103 3
1064 1065 1
1064 1104 1
1065 1066 1
1065 1105 5
1066 1067 4
1066 1106 1
1067 1068 4
1067 1107 3
1068 1069 1
1068 1108 1
1069 1070 4
1069 1109 5
1070 1071 5
1070 1110 4
1071 1072 4
1071 1111 4
1072 1073 2
1072 1112 3
1073 1074 5
1073 1113 2
1074 1075 4
1074 1114 5
1075 1076 1
1075 1115 5
1076 1077 4
1076 1116 1
1077 1078 3
1077 1117 3
1078 1079 3
1078 1118 5
1079 1080 4
1079 1119 2
1080 1120 4
1081 1082 3
1081 1121 3
1082 1083 2
1082 1122 1
1083 1084 4
1083 1123 2
1084 1085 1
1084 1124 1
1085 1086 5
1085 1125 3
1086 1087 3
1086 1126 1
1087 1088 4
1087 1127 4
1088 1089 5
1088 1128 5
1089 1090 2
1089 1129 2
1090 1091 3
1090 1130 1
1091 1092 2
1091 1131 1
1092 1093 2
1092 1132 1
1093 1094 1
1093 1133 5
1094 1095 5
1094 1134 2
1095 1096 4
1095 1135 5
1096 1097 4
1096 1136 3
1097 1098 2
1097 1137 3
1098 1099 4
1098 1138 1
1099 1100 4
1099 1139 2
1100 1101 4
1100 1140 1
1101 1102 5
1101 1141 4
1102 1103 1
1102 1142 1
1103 1104 1
1103 1143 1
1104 1105 1
1104 1144 2
1105 1106 2
1105 1145 2
1106 1107 3
1106 1146 2
1107 1108 3
1107 1147 5
1108 1109 5
1108 1148 1
1109 1110 5
1109 1149 3
1110 1111 5
1110 1150 4
1111 1112 2
1111 1151 5
1112 1113 5
1112 1152 3
1113 1114 3
1113 1153 1
1114 1115 5
1114 1154 5
1115 1116 1
1115 1155 5
1116 1117 2
1116 1156 4
1117 1118 1
1117 1157 3
1118 1119 1
1118 1158 4
1119 1120 2
1119 1159 1
1120 1160 1
1121 1122 5
1121 1161 4
1122 1123 5
1122 1162 5
1123 1124 2
1123 1163 5
1124 1125 2
1124 1164 5
1125 1126 3
1125 1165 2
1126 1127 5
1126 1166 5
1127 1128 3
1127 1167 3
1128 1129 4
1128 1168 4
1129 1130 5
1129 1169 4
1130 1131 3
1130 1170 3
1131 1132 5
1131 1171 1
1132 1133 4
1132 1172 5
1133 1134 5
1133 1173 1
1134 1135 1
1134 1174 5
1135 1136 2
1135 1175 1
1136 1137 2
1136 1176 2
1137 1138 4
1137 1177 2
1138 1139 3
1138 1178 2
1139 1140 2
1139 1179 5
1140 1141 3
1140 1180 5
1141 1142 4
1141 1181 3
1142 1143 1
1142 1182 3
1143 1144 5
1143 1183 2
1144 1145 2
1144 1184 4
1145 1146 2
1145 1185 4
1146 1147 3
1146 1186 3
1147 1148 1
1147 1187 5
1148 1149 5
1148 1188 1
1149 1150 1
1149 1189 4
1150 1151 5
1150 1190 5
1151 1152 5
1151 1191 3
1152 1153 3
1152 1192 1
1153 1154 4
1153 1193 1
1154 1155 5
1154 1194 2
1155 1156 1
1155 1195 1
1156 1157 2
1156 1196 1
1157 1158 1
1157 1197 5
1158 1159 1
1158 1198 4
1159 1160 2
1159 1199 2
1160 1200 1
1161 1162 4
1161 1201 5
1162 1163 1
1162 1202 4
1163 1164 2
1163 1203 3
1164 1165 4
1164 1204 2
1165 1166 1
1165 1205 1
1166 1167 4
1166 1206 2
1167 1168 4
1167 1207 1
1168 1169 1
1168 1208 3
1169 1170 1
1169 1209 5
1170 1171 3
1170 1210 4
1171 1172 2
1171 1211 2
1172 1173 2
1172 1212 4
1173 1174 3
1173 1213 1
1174 1175 5
1174 1214 5
1175 1176 2
1175 1215 3
1176 1177 2
1176 1216 5
1177 1178 5
1177 1217 4
1178 1179 1
1178 1218 3
1179 1180 1
1179 1219 2
1180 1181 1
1180 1220 1
1181 1182 1
1181 1221 1
1182 1183 1
1182 1222 4
1183 1184 4
1183 1223 3
1184 1185 4
1184 1224 5
1185 1186 1
1185 1225 4
1186 1187 3
1186 1226 2
1187 1188 1
1187 1227 1
1188 1189 5
1188 1228 1
1189 1190 3
1189 1229 1
1190 1191 3
1190 1230 5
1191 1192 1
1191 1231 4
1192 1193 1
1192 1232 4
1193 1194 3
1193 1233 1
1194 1195 4
1194 1234 5
1195 1196 1
1195 1235 2
1196 1197 4
1196 1236 4
1197 1198 3
1197 1237 5
1198 1199 1
1198 1238 3
1199 1200 5
1199 1239 2
1200 1240 4
1201 1202 2
1201 1241 3
1202 1203 5
1202 1242 4
1203 1204 2
1203 1243 1
1204 1205 4
1204 1244 2
1205 1206 2
1205 1245 3
1206 1207 3
1206 1246 1
1207 1208 2
1207 1247 4
1208 1209 2
1208 1248 1
1209 1210 4
1209 1249 5
1210 1211 5
1210 1250 3
1211 1212 1
1211 1251 4
1212 1213 1
1212 1252 4
1213 1214 4
1213 1253 1
1214 1215 3
1214 1254 3
1215 1216 2
1215 1255 2
1216 1217 5
1216 1256 3
1217 1218 2
1217 1257 2
1218 1219 4
1218 1258 4
1219 1220 2
1219 1259 2
1220 1221 2
1220 1260 5
1221 1222 3
1221 1261 2
1222 1223 3
1222 1262 5
1223 1224 5
1223 1263 2
1224 1225 1
1224 1264 4
1225 1226 3
1225 1265 3
1226 1227 5
1226 1266 3
1227 1228 5
1227 1267 3
1228 1229 1
1228 1268 2
1229 1230 5
1229 1269 3
1230 1231 5
1230 1270 1
1231 1232 4
1231 1271 4
1232 1233 4
1232 1272 5
1233 1234 3
1233 1273 3
1234 1235 3
1234 1274 5
1235 1236 3
1235 1275 2
1236 1237 4
1236 1276 4
1237 1238 4
1237 1277 2
1238 1239 3
1238 1278 1
1239 1240 5
1239 1279 3
1240 1280 3
1241 1242 4
1241 1281 2
1242 1243 4
1242 1282 4
1243 1244 1
1243 1283 5
1244 1245 3
1244 1284 5
1245 1246 2
1245 1285 1
1246 1247 2
1246 1286 2
1247 1248 1
1247 1287 3
1248 1249 5
1248 1288 4
1249 1250 5
1249 1289 1
1250 1251 5
1250 1290 5
1251 1252 5
1251 1291 2
1252 1253 1
1252 1292 5
1253 1254 1
1253 1293 4
1254 1255 4
1254 1294 2
1255 1256 5
1255 1295 4
1256 1257 5
1256 1296 3
1257 1258 3
1257 1297 1
1258 1259 4
1258 1298 4
1259 1260 5
1259 1299 3
1260 1261 4
1260 1300 5
1261 1262 1
1261 1301 1
1262 1263 5
1262 1302 4
1263 1264 4
1263 1303 3
1264 1265 3
1264 1304 3
1265 1266 2
1265 1305 3
1266 1267 3
1266 1306 3
1267 1268 2
1267 1307 2
1268 1269 2
1268 1308 3
1269 1270 4
1269 1309 1
1270 1271 2
1270 1310 2
1271 1272 1
1271 1311 1
1272 1273 1
1272 1312 2
1273 1274 5
1273 1313 1
1274 1275 5
1274 1314 2
1275 1276 5
1275 1315 3
1276 1277 3
1276 1316 5
1277 1278 4
1277 1317 2
1278 1279 1
1278 1318 1
1279 1280 4
1279 1319 2
1280 1320 5
1281 1282 5
1281 1321 3
1282 1283 5
1282 1322 4
1283 1284 1
1283 1323 1
1284 1285 5
1284 1324 5
1285 1286 2
1285 1325 2
1286 1287 5
1286 1326 2
1287 1288 2
1287 1327 5
1288 1289 2
1288 1328 5
1289 1290 2
1289 1329 4
1290 1291 2
1290 1330 3
1291 1292 4
1291 1331 1
1292 1293 5
1292 1332 1
1293 1294 3
1293 1333 3
1294 1295 3
1294 1334 3
1295 1296 3
1295 1335 5
1296 1297 1
1296 1336 1
1297 1298 5
1297 1337 2
1298 1299 5
1298 1338 2
1299 1300 1
1299 1339 4
1300 1301 1
1300 1340 5
1301 1302 5
1301 1341 3
1302 1303 1
1302 1342 1
1303 1304 4
1303 1343 1
1304 1305 3
1304 1344 3
1305 1306 5
1305 1345 4
1306 1307 2
1306 1346 2
1307 1308 1
1307 1347 1
1308 1309 1
1308 1348 1
1309 1310 5
1309 1349 5
1310 1311 1
1310 1350 2
1311 1312 1
1311 1351 4
1312 1313 3
1312 1352 3
1313 1314 4
1313 1353 2
1314 1315 3
1314 1354 1
1315 1316 2
1315 1355 2
1316 1317 1
1316 1356 5
1317 1318 5
1317 1357 2
1318 1319 1
1318 1358 5
1319 1320 1
1319 1359 5
1320 1360 1
1321 1322 1
1321 1361 4
1322 1323 1
1322 1362 3
1323 1324 2
1323 1363 1
1324 1325 3
1324 1364 1
1325 1326 1
1325 1365 1
1326 1327 2
1326 1366 2
1327 1328 3
1327 1367 3
1328 1329 1
1328 1368 4
1329 1330 3
1329 1369 4
1330 1331 1
1330 1370 2
1331 1332 5
1331 1371 1
1332 1333 4
1332 1372 2
1333 1334 1
1333 1373 2
1334 1335 3
1334 1374 2
1335 1336 3
1335 1375 3
1336 1337 2
1336 1376 2
1337 1338 1
1337 1377 3
1338 1339 1
1338 1378 1
1339 1340 2
1339 1379 5
1340 1341 5
1340 1380 2
1341 1342 1
1341 1381 4
1342 1343 4
1342 1382 2
1343 1344 3
1343 1383 4
1344 1345 4
1344 1384 4
1345 1346 1
1345 1385 4
1346 1347 2
1346 1386 5
1347 1348 2
1347 1387 5
1348 1349 5
1348 1388 4
1349 1350 5
1349 1389 2
1350 1351 4
1350 1390 1
1351 1352 5
1351 1391 5
1352 1353 1
1352 1392 5
1353 1354 1
1353 1393 2
1354 1355 2
1354 1394 4
1355 1356 5
1355 1395 4
1356 1357 4
1356 1396 2
1357 1358 3
1357 1397 2
1358 1359 1
1358 1398 1
1359 1360 4
1359 1399 4
1360 1400 5
1361 1362 1
1361 1401 3
1362 1363 5
1362 1402 5
1363 1364 1
1363 1403 2
1364 1365 2
1364 1404 4
1365 1366 4
1365 1405 1
1366 1367 1
1366 1406 3
1367 1368 4
1367 1407 2
1368 1369 4
1368 1408 2
1369 1370 5
1369 1409 5
1370 1371 4
1370 1410 2
1371 1372 5
1371 1411 1
1372 1373 1
1372 1412 2
1373 1374 3
1373 1413 5
1374 1375 2
1374 1414 2
1375 1376 3
1375 1415 3
1376 1377 1
1376 1416 5
1377 1378 5
1377 1417 2
1378 1379 5
1378 1418 5
1379 1380 2
1379 1419 1
1380 1381 3
1380 1420 5
1381 1382 4
1381 1421 2
1382 1383 5
1382 1422 1
1383 1384 5
1383 1423 2
1384 1385 1
1384 1424 3
1385 1386 5
1385 1425 3
1386 1387 3
1386 1426 3
1387 1388 2
1387 1427 1
1388 1389 3
1388 1428 3
1389 1390 3
1389 1429 4
1390 1391 5
1390 1430 4
1391 1392 5
1391 1431 1
1392 1393 2
1392 1432 4
1393 1394 4
1393 1433 4
1394 1395 1
1394 1434 3
1395 1396 1
1395 1435 1
1396 1397 4
1396 1436 3
1397 1398 5
1397 1437 4
1398 1399 3
1398 1438 2
1399 1400 5
1399 1439 1
1400 1440 3
1401 1402 4
1401 1441 1
1402 1403 1
1402 1442 3
1403 1404 4
1403 1443 2
1404 1405 1
1404 1444 5
1405 1406 5
1405 1445 2
1406 1407 2
1406 1446 3
1407 1408 4
1407 1447 2
1408 1409 1
1408 1448 1
1409 1410 5
1409 1449 5
1410 1411 5
1410 1450 5
1411 1412 5
1411 1451 3
1412 1413 3
1412 1452 3
1413 1414 2
1413 1453 4
1414 1415 2
1414 1454 1
1415 1416 4
1415 1455 2
1416 1417 5
1416 1456 4
1417 1418 1
1417 1457 3
1418 1419 3
1418 1458 2
1419 1420 2
1419 1459 1
1420 1421 2
1420 1460 1
1421 1422 2
1421 1461 3
1422 1423 1
1422 1462 4
1423 1424 2
1423 1463 2
1424 1425 5
1424 1464 5
1425 1426 4
1425 1465 1
1426 1427 4
1426 1466 2
1427 1428 2
1427 1467 1
1428 1429 5
1428 1468 5
1429 1430 3
1429 1469 3
1430 1431 5
1430 1470 2
1431 1432 2
1431 1471 3
1432 1433 5
1432 1472 2
1433 1434 3
1433 1473 4
1434 1435 2
1434 1474 2
1435 1436 3
1435 1475 4
1436 1437 4
1436 1476 1
1437 1438 1
1437 1477 5
1438 1439 5
1438 1478 4
1439 1440 3
1439 1479 1
1440 1480 1
1441 1442 3
1441 1481 1
1442 1443 5
1442 1482 3
1443 1444 3
1443 1483 5
1444 1445 5
1444 1484 1
1445 1446 3
1445 1485 4
1446 1447 3
1446 1486 2
1447 1448 2
1447 1487 5
1448 1449 4
1448 1488 1
1449 1450 4
1449 1489 2
1450 1451 1
1450 1490 3
1451 1452 5
1451 1491 3
1452 1453 3
1452 1492 4
1453 1454 1
1453 1493 3
1454 1455 1
1454 1494 4
1455 1456 2
1455 1495 5
1456 1457 1
1456 1496 2
1457 1458 3
1457 1497 2
1458 1459 5
1458 1498 5
1459 1460 1
1459 1499 4
1460 1461 5
1460 1500 5
1461 1462 5
1461 1501 5
1462 1463 1
1462 1502 2
1463 1464 5
1463 1503 1
1464 1465 2
1464 1504 5
1465 1466 1
1465 1505 3
1466 1467 4
1466 1506 1
1467 1468 3
1467 1507 3
1468 1469 4
1468 1508 2
1469 1470 4
1469 1509 4
1470 1471 1
1470 1510 4
1471 1472 4
1471 1511 3
1472 1473 3
1472 1512 1
1473 1474 4
1473 1513 3
1474 1475 4
1474 1514 2
1475 1476 1
1475 1515 1
1476 1477 1
1476 1516 3
1477 1478 1
1477 1517 2
1478 1479 2
1478 1518 3
1479 1480 1
1479 1519 1
1480 1520 3
1481 1482 2
1481 1521 2
1482 1483 2
1482 1522 1
1483 1484 2
1483 1523 5
1484 1485 4
1484 1524 1
1485 1486 3
1485 1525 5
1486 1487 2
1486 1526 3
1487 1488 3
1487 1527 1
1488 1489 3
1488 1528 4
1489 1490 2
1489 1529 2
1490 1491 4
1490 1530 2
1491 1492 3
1491 1531 5
1492 1493 4
1492 1532 1
1493 1494 2
1493 1533 2
1494 1495 3
1494 1534 1
1495 1496 5
1495 1535 4
1496 1497 5
1496 1536 5
1497 1498 1
1497 1537 1
1498 1499 2
1498 1538 2
1499 1500 2
1499 1539 4
1500 1501 2
1500 1540 2
1501 1502 1
1501 1541 4
1502 1503 3
1502 1542 2
1503 1504 2
1503 1543 3
1504 1505 4
1504 1544 1
1505 1506 5
1505 1545 2
1506 1507 2
1506 1546 4
1507 1508 5
1507 1547 1
1508 1509 1
1508 1548 5
1509 1510 2
1509 1549 4
1510 1511 2
1510 1550 1
1511 1512 2
1511 1551 1
1512 1513 2
1512 1552 5
1513 1514 3
1513 1553 2
1514 1515 1
1514 1554 1
1515 1516 4
1515 1555 2
1516 1517 5
1516 1556 4
1517 1518 1
1517 1557 5
1518 1519 3
1518 1558 1
1519 1520 4
1519 1559 4
1520 1560 5
1521 1522 4
1521 1561 1
1522 1523 2
1522 1562 1
1523 1524 3
1523 1563 5
1524 1525 3
1524 1564 3
1525 1526 4
1525 1565 4
1526 1527 5
1526 1566 4
1527 1528 5
1527 1567 5
1528 1529 4
1528 1568 3
1529 1530 3
1529 1569 2
1530 1531 4
1530 1570 4
1531 1532 2
1531 1571 5
1532 1533 5
1532 1572 5
1533 1534 5
1533 1573 5
1534 1535 4
1534 1574 3
1535 1536 5
1535 1575 4
1536 1537 4
1536 1576 1
1537 1538 2
1537 1577 4
1538 1539 5
1538 1578 4
1539 1540 3
1539 1579 3
1540 1541 5
1540 1580 3
1541 1542 2
1541 1581 2
1542 1543 3
1542 1582 2
1543 1544 2
1543 1583 4
1544 1545 5
1544 1584 2
1545 1546 2
1545 1585 5
1546 1547 4
1546 1586 1
1547 1548 1
1547 1587 4
1548 1549 1
1548 1588 4
1549 1550 2
1549 1589 5
1550 1551 2
1550 1590 1
1551 1552 1
1551 1591 1
1552 1553 2
1552 1592 2
1553 1554 2
1553 1593 2
1554 1555 4
1554 1594 4
1555 1556 2
1555 1595 1
1556 1557 3
1556 1596 1
1557 1558 1
1557 1597 1
1558 1559 3
1558 1598 2
1559 1560 1
1559 1599 3
1560 1600 3
1561 1562 4
1562 1563 4
1563 1564 2
1564 1565 2
1565 1566 3
1566 1567 5
1567 1568 5
1568 1569 4
1569 1570 3
1570 1571 1
1571 1572 3
1572 1573 4
1573 1574 3
1574 1575 2
1575 1576 2
1576 1577 5
1577 1578 5
1578 1579 1
1579 1580 4
1580 1581 2
1581 1582 1
1582 1583 3
1583 1584 5
1584 1585 5
1585 1586 4
1586 1587 4
1587 1588 3
1588 1589 1
1589 1590 1
1590 1591 3
1591 1592 1
1592 1593 2
1593 1594 4
1594 1595 3
1595 1596 5
1596 1597 3
1597 1598 4
1598 1599 3
1599 1600 5
1 1561 5
2 1562 2
3 1563 2
4 1564 1
5 1565 1
6 1566 3
7 1567 4
8 1568 2
9 1569 5
10 1570 3
11 1571 5
12 1572 5
13 1573 2
14 1574 4
15 1575 3
16 1576 4
17 1577 4
18 1578 3
19 1579 4
20 1580 4
21 1581 4
22 1582 3
23 1583 4
24 1584 2
25 1585 3
26 1586 5
27 1587 5
28 1588 4
29 1589 3
30 1590 1
31 1591 1
32 1592 3
33 1593 1
34 1594 4
35 1595 1
36 1596 2
37 1597 4
38 1598 2
39 1599 1
40 1600 2
1 40 3
41 80 3
81 120 2
121 160 1
161 200 3
201 240 4
241 280 4
281 320 2
321 360 3
361 400 1
401 440 3
441 480 1
481 520 4
521 560 5
561 600 1
601 640 2
641 680 2
681 720 1
721 760 2
761 800 3
801 840 2
841 880 3
881 920 5
921 960 4
961 1000 1
1001 1040 5
1041 1080 4
1081 1120 3
1121 1160 2
1161 1200 4
1201 1240 5
1241 1280 2
1281 1320 3
1321 1360 3
1361 1400 3
1401 1440 1
1441 1480 5
1481 1520 5
1521 1560 1
1561 1600 5
